Route #1: 31 46 35
Route #2: 32 33 53 73 95 24
Route #3: 68 90 84 66
Route #4: 15 22 41 20
Route #5: 4 13 74
Route #6: 86 9 92
Route #7: 34 64 96 48 26 47 38
Route #8: 89 98 99 62 71
Route #9: 50 91 52
Route #10: 69 16 55 76
Route #11: 7 2 45 43 29 36 72 57
Route #12: 39 10 18
Route #13: 40 67 88 44
Route #14: 17 8
Route #15: 3 77 63
Route #16: 28 42 78 65 25
Route #17: 14 49 6 37 87
Route #18: 30 85 11 79
Route #19: 23 61 100
Route #20: 80 94 56 21
Route #21: 58 12 5
Route #22: 83 51 81
Route #23: 1 70 54
Route #24: 75 93
Route #25: 82 60 59
Route #26: 19 97 27
Cost 27591.0000
Time 16.0005